<?xml version = "1.0" standalone="yes"?>
<!-- This file has been generated by DOcplex version 2.23.222  -->
<CPLEXSolution version="1.0">
 <header
   problemName="CVRP"
   objectiveValue="14189.2"
  />
 <variables>
  <variable name="x_0_1" index="0" value="1.00000"/>
  <variable name="x_0_2" index="1" value="1.00000"/>
  <variable name="x_0_3" index="2" value="1.00000"/>
  <variable name="x_0_4" index="3" value="1.00000"/>
  <variable name="x_0_5" index="4" value="1.00000"/>
  <variable name="x_0_6" index="5" value="1.00000"/>
  <variable name="x_0_8" index="7" value="1.00000"/>
  <variable name="x_0_9" index="8" value="1.00000"/>
  <variable name="x_0_10" index="9" value="1.00000"/>
  <variable name="x_0_11" index="10" value="1.00000"/>
  <variable name="x_0_13" index="12" value="1.00000"/>
  <variable name="x_0_14" index="13" value="1.00000"/>
  <variable name="x_0_15" index="14" value="1.00000"/>
  <variable name="x_0_17" index="16" value="1.00000"/>
  <variable name="x_1_0" index="19" value="1.00000"/>
  <variable name="x_2_0" index="38" value="1.00000"/>
  <variable name="x_3_0" index="57" value="1.00000"/>
  <variable name="x_4_0" index="76" value="1.00000"/>
  <variable name="x_5_19" index="113" value="1.00000"/>
  <variable name="x_6_0" index="114" value="1.00000"/>
  <variable name="x_7_0" index="133" value="1.00000"/>
  <variable name="x_8_16" index="167" value="1.00000"/>
  <variable name="x_9_18" index="188" value="1.00000"/>
  <variable name="x_10_0" index="190" value="1.00000"/>
  <variable name="x_11_0" index="209" value="1.00000"/>
  <variable name="x_12_0" index="228" value="1.00000"/>
  <variable name="x_13_7" index="254" value="1.00000"/>
  <variable name="x_14_0" index="266" value="1.00000"/>
  <variable name="x_15_0" index="285" value="1.00000"/>
  <variable name="x_16_12" index="316" value="1.00000"/>
  <variable name="x_17_0" index="323" value="1.00000"/>
  <variable name="x_18_0" index="342" value="1.00000"/>
  <variable name="x_19_0" index="361" value="1.00000"/>
  <variable name="u_1" index="380" value="24.00000"/>
  <variable name="u_2" index="381" value="22.00000"/>
  <variable name="u_3" index="382" value="23.00000"/>
  <variable name="u_4" index="383" value="33.00000"/>
  <variable name="u_5" index="384" value="2.00000"/>
  <variable name="u_6" index="385" value="33.00000"/>
  <variable name="u_7" index="386" value="31.00000"/>
  <variable name="u_8" index="387" value="16.00000"/>
  <variable name="u_9" index="388" value="24.00000"/>
  <variable name="u_10" index="389" value="23.00000"/>
  <variable name="u_11" index="390" value="13.00000"/>
  <variable name="u_12" index="391" value="33.00000"/>
  <variable name="u_13" index="392" value="17.00000"/>
  <variable name="u_14" index="393" value="25.00000"/>
  <variable name="u_15" index="394" value="33.00000"/>
  <variable name="u_16" index="395" value="22.00000"/>
  <variable name="u_17" index="396" value="33.00000"/>
  <variable name="u_18" index="397" value="29.00000"/>
  <variable name="u_19" index="398" value="32.00000"/>
 </variables>
</CPLEXSolution>
